Route #1: 2 34 48 40 7 25 9 33 12 37
Route #2: 4 18 26 47 24 16 43 49
Route #3: 36 11 5
Route #4: 3 13 23 46 22 38 14
Route #5: 10 35 39 45 41
Route #6: 32 19 29 28 1
Route #7: 21 42 17 8 15
Route #8: 6 31 30 20 27 44
Cost 1333